3 
4  56 
5  12 27 43 58 
6  14 28 43 58 
7  13 28 43 58 
8  13 28 43 58 
9  13 28 43 58 
10  13 29 44 59 
11  14 29 44 59 
12  14 29 44 59 
13  14 29 44 59 
14  14 29 44 
15  00 15 30 45 
16  00 15 30 45 
17  00 15 30 45 
18  00 17 37 52 
19  07 22 37 52 
20  07 24 38 53 
21  08 23 
22 
